8
1 3
2 9
3 5
4 1
5 6
6 8
7 6
8 10
41
0 1 78
1 0 78
0 2 23
2 0 23
0 3 34
3 0 34
0 4 23
4 0 23
0 5 22
5 0 22
0 6 1
6 0 1
0 7 49
7 0 49
0 8 4
8 0 4
1 2 25
1 3 60
1 4 50
1 5 17
1 6 31
1 8 5
2 3 62
2 4 98
2 5 17
2 6 4
2 7 36
2 8 34
3 4 69
3 5 46
3 6 29
3 8 40
4 5 31
4 6 1
4 7 22
4 8 69
5 6 30
5 7 27
5 8 6
6 7 18
6 8 23
